c PicoSAT SAT Solver Version 959
c Copyright (c) 2006 - 2014 Armin Biere JKU Linz
c gcc -Wall -Wextra -DNDEBUG -O3 -fno-strict-aliasing
c
c using 2 as default phase
c
c parsing <stdin>
c parsed header 'p cnf 10 8'
c initialized 10 variables
c found 8 non trivial clauses
c
c random number generator seed 0
c 
c  seconds     variables   original    learned     agility
c         level        used      conflicts    limit          MB
c 
c s   0.0   0.0    10   0.0     8     0     0     0   0.0   0.0 
c 
c initial reduction limit 1000 clauses
c 
c 1   0.0   5.5    10   0.0     8     0     0  1000   0.0   0.0 
c 
c  seconds     variables   original    learned     agility
c         level        used      conflicts    limit          MB
c 
s SATISFIABLE
v 1 2 -3 4 5 6 7 8 -9 10 0
c
c 0 iterations
c 0 restarts
c 0 failed literals
c 0 conflicts
c 10 decisions
c 0 fixed variables
c 0 learned literals
c 0.0% deleted literals
c 10 propagations
c 1 visits
c 0.0% variables used
c 0.0 seconds in library
c 0.0 megaprops/second
c 0.0 megavisits/second
c probing 0.0 seconds 0%
c 1 simplifications
c 0 reductions
c 0.0 MB recycled
c 0.0 MB maximally allocated
c 0.000000 seconds total run time
